125
0 83 24 100 1 32 15 112 66 55 
68 72 6 109 27 42 103 56 13 11 
30 96 121 26 111 88 79 39 51 41 
34 7 97 22 63 108 31 122 76 10 
43 73 58 33 61 48 92 113 47 119 
91 49 101 44 70 19 4 82 124 3 
12 115 57 36 46 67 120 106 81 21 
45 118 54 105 40 8 37 90 18 64 
98 99 94 93 53 16 104 107 86 71 
2 60 85 80 123 52 35 20 117 38 
50 102 29 9 116 87 17 84 62 114 
75 28 89 59 5 23 65 25 110 78 
95 14 69 77 74 
